
Gurobi 10.0.0 (win64) logging started Thu Jun 13 22:07:19 2024

Set parameter LogFile to value "C:\Users\ealvarezq\Documents\GitHub\Comillas\Models\JointResearch\05. Models\06.Benchmarking\L.Cont_Investments_per_hour\RTS24_mod2_ByStages_nc150/openStarNet_RTS24_mod2_ByStages_nc150.log"
Set parameter Method to value 2
Set parameter MIPFocus to value 1
Set parameter Presolve to value 2
Set parameter RINS to value 100
Set parameter MIPGap to value 0.01
Set parameter Threads to value 9
Set parameter TimeLimit to value 259200
Set parameter IterationLimit to value 760000000
Gurobi Optimizer version 10.0.0 build v10.0.0rc2 (win64)

CPU model: Intel(R) Core(TM) i7-8700 CPU @ 3.20GHz, instruction set [SSE2|AVX|AVX2]
Thread count: 6 physical cores, 12 logical processors, using up to 9 threads

Optimize a model with 53253 rows, 35866 columns and 144908 nonzeros
Model fingerprint: 0xcf2566d1
Variable types: 35845 continuous, 21 integer (21 binary)
Coefficient statistics:
  Matrix range     [1e-03, 1e+03]
  Objective range  [1e+00, 1e+00]
  Bounds range     [3e-05, 3e+00]
  RHS range        [3e-05, 3e+00]
Presolve removed 31686 rows and 18133 columns
Presolve time: 0.20s
Presolved: 21567 rows, 17733 columns, 77814 nonzeros
Variable types: 17712 continuous, 21 integer (21 binary)
Root relaxation presolved: 21567 rows, 17733 columns, 77814 nonzeros

Root barrier log...

Ordering time: 0.01s

Barrier statistics:
 Dense cols : 21
 AA' NZ     : 1.445e+05
 Factor NZ  : 4.144e+05 (roughly 20 MB of memory)
 Factor Ops : 8.500e+06 (less than 1 second per iteration)
 Threads    : 8

                  Objective                Residual
Iter       Primal          Dual         Primal    Dual     Compl     Time
   0   6.38754896e+05 -4.04096464e+08  5.15e+00 5.15e+02  2.22e+04     0s
   1   9.71097168e+04 -1.02859726e+08  6.47e-01 9.23e-09  3.02e+03     0s
   2   3.92161443e+04 -2.03368579e+07  1.53e-01 1.24e-08  4.99e+02     0s
   3   2.15046993e+04 -1.95311498e+06  5.63e-03 5.90e-10  4.00e+01     0s
   4   1.27674615e+04 -1.62390240e+05  6.23e-13 3.18e-10  3.49e+00     0s
   5   4.89114416e+03 -4.73330286e+04  4.12e-13 8.37e-11  1.04e+00     0s
   6   1.44398729e+03 -1.19507711e+04  3.77e-13 1.98e-11  2.67e-01     0s
   7   4.66702216e+02 -3.66475163e+03  1.88e-13 5.34e-12  8.23e-02     0s
   8   2.40964006e+02 -9.71368106e+02  1.75e-13 3.82e-12  2.41e-02     0s
   9   1.46811651e+02 -1.45328967e+02  1.19e-13 2.24e-12  5.82e-03     0s
  10   9.88433082e+01 -2.95848746e+01  1.48e-13 2.43e-12  2.56e-03     0s
  11   7.94954118e+01  2.07648932e+01  3.12e-13 3.83e-12  1.17e-03     0s
  12   6.79194427e+01  3.49574143e+01  4.48e-13 1.68e-12  6.56e-04     0s
  13   6.29891939e+01  4.18987492e+01  4.22e-13 1.03e-12  4.20e-04     0s
  14   5.92520599e+01  4.85959347e+01  9.30e-13 2.13e-12  2.12e-04     0s
  15   5.80884898e+01  5.09648116e+01  6.15e-12 1.79e-12  1.42e-04     0s
  16   5.73677412e+01  5.28752846e+01  4.47e-12 1.84e-12  8.94e-05     0s
  17   5.67228475e+01  5.43312269e+01  3.35e-12 8.82e-13  4.76e-05     1s
  18   5.63337471e+01  5.49722200e+01  1.10e-11 2.01e-12  2.71e-05     1s
  19   5.61534702e+01  5.51297736e+01  5.26e-12 9.80e-13  2.04e-05     1s
  20   5.60967163e+01  5.53040024e+01  8.76e-12 1.49e-12  1.58e-05     1s
  21   5.60084192e+01  5.55522672e+01  6.26e-12 1.59e-12  9.08e-06     1s
  22   5.59586710e+01  5.57706318e+01  5.83e-12 1.72e-12  3.74e-06     1s
  23   5.59331178e+01  5.58012440e+01  9.01e-12 1.22e-12  2.63e-06     1s
  24   5.59075784e+01  5.58349478e+01  4.69e-11 1.58e-12  1.45e-06     1s
  25   5.58981864e+01  5.58799647e+01  2.52e-11 9.85e-13  3.63e-07     1s
  26   5.58972135e+01  5.58931618e+01  8.70e-11 3.53e-12  8.07e-08     1s
  27   5.58970523e+01  5.58957989e+01  2.70e-10 1.90e-12  2.50e-08     1s
  28   5.58970153e+01  5.58964365e+01  1.44e-10 2.42e-12  1.15e-08     1s
  29   5.58969721e+01  5.58967533e+01  8.43e-10 2.13e-12  4.36e-09     1s
  30   5.58969619e+01  5.58969315e+01  4.08e-10 3.54e-12  6.05e-10     1s
  31   5.58969572e+01  5.58969554e+01  4.16e-09 2.77e-12  3.51e-11     1s
  32   5.58969571e+01  5.58969571e+01  7.60e-09 1.87e-12  5.86e-13     1s

Barrier solved model in 32 iterations and 0.65 seconds (0.60 work units)
Optimal objective 5.58969571e+01


Root relaxation: objective 5.589696e+01, 2547 iterations, 0.55 seconds (0.49 work units)

    Nodes    |    Current Node    |     Objective Bounds      |     Work
 Expl Unexpl |  Obj  Depth IntInf | Incumbent    BestBd   Gap | It/Node Time

     0     0   55.89696    0   18          -   55.89696      -     -    1s
H    0     0                     104.4131519   55.89696  46.5%     -    1s
     0     0   56.92377    0   12  104.41315   56.92377  45.5%     -    2s
H    0     0                     100.4314600   56.92377  43.3%     -    3s
H    0     0                      94.5320436   57.01650  39.7%     -    3s
     0     0   57.04239    0   12   94.53204   57.04239  39.7%     -    3s
     0     0   57.04408    0   12   94.53204   57.04408  39.7%     -    3s
     0     0   57.06227    0   12   94.53204   57.06227  39.6%     -    3s
H    0     0                      91.1694255   57.06994  37.4%     -    3s
     0     0   57.06994    0   12   91.16943   57.06994  37.4%     -    3s
     0     0   57.07092    0   12   91.16943   57.07092  37.4%     -    3s
     0     0   57.07528    0   12   91.16943   57.07528  37.4%     -    4s
     0     0   57.07569    0   12   91.16943   57.07569  37.4%     -    4s
     0     0   57.07573    0   12   91.16943   57.07573  37.4%     -    4s
     0     0   57.29268    0   13   91.16943   57.29268  37.2%     -    4s
     0     0   57.35066    0   14   91.16943   57.35066  37.1%     -    5s
     0     0   57.36338    0   14   91.16943   57.36338  37.1%     -    5s
     0     0   57.36560    0   14   91.16943   57.36560  37.1%     -    5s
     0     0   57.36561    0   14   91.16943   57.36561  37.1%     -    5s
H    0     0                      87.6419813   57.45447  34.4%     -    6s
     0     0   57.45447    0   12   87.64198   57.45447  34.4%     -    6s
     0     0   57.46344    0   13   87.64198   57.46344  34.4%     -    6s
     0     0   57.47955    0   12   87.64198   57.47955  34.4%     -    6s
H    0     0                      83.7177960   57.48479  31.3%     -    6s
     0     0   57.48479    0   12   83.71780   57.48479  31.3%     -    6s
     0     0   57.49175    0    9   83.71780   57.49175  31.3%     -    6s
     0     0   57.49590    0    9   83.71780   57.49590  31.3%     -    6s
     0     0   57.49595    0    9   83.71780   57.49595  31.3%     -    6s
     0     0   57.51182    0   10   83.71780   57.51182  31.3%     -    7s
     0     0   57.51618    0   10   83.71780   57.51618  31.3%     -    7s
     0     0   57.51948    0   10   83.71780   57.51948  31.3%     -    7s
     0     0   57.51948    0   10   83.71780   57.51948  31.3%     -    7s
     0     0   57.51980    0    9   83.71780   57.51980  31.3%     -    8s
H    0     0                      82.7220277   57.51980  30.5%     -    9s
H    0     0                      78.7220076   57.51980  26.9%     -   15s
     0     2   57.51980    0    9   78.72201   57.51980  26.9%     -   16s
    24    34   59.80328    5   15   78.72201   58.82109  25.3%  1385   21s
H   30    34                      74.5550881   58.82109  21.1%  1342   21s
    60    65   63.84172    7   13   74.55509   59.82417  19.8%  1366   25s
    93    85   68.88712   10   11   74.55509   59.82417  19.8%  1243   34s
   104    96   71.53160   10   11   74.55509   59.82417  19.8%  1208   36s
   142   106     cutoff   12        74.55509   59.89246  19.7%  1145   40s
   194   124   71.55397   10   11   74.55509   59.89246  19.7%  1182   46s
   234   130   73.33088   10   11   74.55509   59.89246  19.7%  1120   50s
   299   142     cutoff   13        74.55509   60.49769  18.9%  1062  110s
H  303   142                      74.4014621   60.49769  18.7%  1060  110s
   360   154   71.01366    8   13   74.40146   60.49769  18.7%  1032  115s
   397   169     cutoff   10        74.40146   62.34411  16.2%   996  196s
   468   193   70.99425    9   12   74.40146   62.34411  16.2%   975  202s
   511   203   73.17075   10   11   74.40146   62.34411  16.2%   955  206s
   607   215   71.64418    9   12   74.40146   65.97376  11.3%   911  212s
   659   231   69.71397   11   10   74.40146   65.97376  11.3%   895  216s
   757   235   70.79022   10   11   74.40146   66.58894  10.5%   874  223s
   821   250     cutoff   13        74.40146   66.83395  10.2%   852  227s
   886   248   73.31615   11    9   74.40146   67.27164  9.58%   838  232s
   955   255     cutoff   11        74.40146   67.44958  9.34%   823  236s
  1030   266   72.53442   14    7   74.40146   67.72420  8.97%   808  243s
  1067   263   73.02625   15    6   74.40146   67.87695  8.77%   801  247s
  1160   268   71.15607   12    9   74.40146   68.45757  7.99%   780  252s
  1246   270     cutoff   12        74.40146   68.81736  7.51%   771  257s
  1345   282   74.31047   10   11   74.40146   69.13913  7.07%   757  265s
  1389   296     cutoff   11        74.40146   69.19033  7.00%   747  279s
  1522   303   73.84305   16    5   74.40146   69.44476  6.66%   720  284s
  1659   313     cutoff   13        74.40146   69.78468  6.21%   697  289s
  1797   305   73.10277   11   10   74.40146   69.95403  5.98%   677  299s
  1881   305   72.22112   15    6   74.40146   70.23235  5.60%   671  305s
  2019   300     cutoff   11        74.40146   70.52348  5.21%   657  310s
  2155   293   72.97318   12    9   74.40146   70.75912  4.90%   649  316s
  2329   271     cutoff   15        74.40146   71.09407  4.45%   631  322s
  2515   223     cutoff   14        74.40146   71.54076  3.84%   614  328s
  2745   163     cutoff   13        74.40146   71.95191  3.29%   589  335s

Cutting planes:
  Implied bound: 226
  MIR: 754
  Relax-and-lift: 104

Explored 3239 nodes (1758646 simplex iterations) in 339.85 seconds (717.28 work units)
Thread count was 9 (of 12 available processors)

Solution count 10: 74.4015 74.5551 78.722 ... 104.413

Optimal solution found (tolerance 1.00e-02)
Best objective 7.440146211955e+01, best bound 7.385356614132e+01, gap 0.7364%

Gurobi 10.0.0 (win64) logging started Thu Jun 13 22:13:17 2024

Set parameter LogFile to value "C:\Users\ealvarezq\Documents\GitHub\Comillas\Models\JointResearch\05. Models\06.Benchmarking\L.Cont_Investments_per_hour\RTS24_mod2_ByStages_nc150/openStarNet_RTS24_mod2_ByStages_nc150.log"
Set parameter Method to value 2
Set parameter MIPFocus to value 1
Set parameter Presolve to value 2
Set parameter RINS to value 100
Set parameter MIPGap to value 0.01
Set parameter Threads to value 9
Set parameter TimeLimit to value 259200
Set parameter IterationLimit to value 760000000
Gurobi Optimizer version 10.0.0 build v10.0.0rc2 (win64)

CPU model: Intel(R) Core(TM) i7-8700 CPU @ 3.20GHz, instruction set [SSE2|AVX|AVX2]
Thread count: 6 physical cores, 12 logical processors, using up to 9 threads

Optimize a model with 53253 rows, 35845 columns and 132287 nonzeros
Model fingerprint: 0xb6465810
Coefficient statistics:
  Matrix range     [1e-03, 1e+03]
  Objective range  [1e+00, 1e+00]
  Bounds range     [3e-05, 3e+00]
  RHS range        [3e-05, 2e+01]
Presolve removed 44856 rows and 20740 columns
Presolve time: 0.07s
Presolved: 8397 rows, 15396 columns, 37908 nonzeros

Ordering time: 0.00s

Barrier statistics:
 AA' NZ     : 2.201e+04
 Factor NZ  : 8.266e+04 (roughly 8 MB of memory)
 Factor Ops : 1.208e+06 (less than 1 second per iteration)
 Threads    : 9

                  Objective                Residual
Iter       Primal          Dual         Primal    Dual     Compl     Time
   0   4.07753645e+06 -2.61134598e+08  3.28e+01 7.24e+02  1.10e+05     0s
   1   2.49232520e+05 -1.69056472e+08  1.79e+00 2.18e-11  1.10e+04     0s
   2   5.01372589e+04 -2.96198905e+07  2.54e-01 1.46e-11  1.44e+03     0s
   3   2.59533747e+04 -4.83616617e+06  1.87e-02 1.46e-11  1.91e+02     0s
   4   1.98275182e+04 -1.58892875e+06  6.93e-04 9.09e-12  5.98e+01     0s
   5   1.42963739e+04 -2.34744267e+05  8.75e-07 6.37e-12  9.23e+00     0s
   6   6.32802016e+03 -5.76436568e+04  1.15e-08 7.90e-12  2.37e+00     0s
   7   2.00577370e+03 -1.27043229e+04  5.65e-10 4.53e-12  5.45e-01     0s
   8   6.84556844e+02 -4.35749408e+03  1.35e-10 1.74e-12  1.87e-01     0s
   9   2.56794129e+02 -8.82543123e+02  1.27e-11 3.58e-12  4.22e-02     0s
  10   1.47546029e+02 -2.23984757e+02  2.78e-12 3.35e-12  1.38e-02     0s
  11   1.08362045e+02 -4.96117523e+01  2.94e-12 3.07e-12  5.86e-03     0s
  12   9.47461189e+01  2.80337143e+01  5.82e-12 3.08e-12  2.47e-03     0s
  13   8.46889452e+01  5.67128136e+01  9.36e-12 1.59e-12  1.04e-03     0s
  14   8.02630565e+01  6.71576062e+01  9.46e-12 1.04e-12  4.86e-04     0s
  15   7.65723099e+01  7.15791798e+01  2.02e-11 2.32e-12  1.85e-04     0s
  16   7.48848090e+01  7.34625141e+01  8.20e-11 2.91e-12  5.27e-05     0s
  17   7.46244445e+01  7.40639017e+01  9.01e-11 3.90e-12  2.08e-05     0s
  18   7.44355019e+01  7.43116789e+01  7.92e-11 3.93e-12  4.59e-06     0s
  19   7.44033902e+01  7.43933729e+01  1.07e-10 2.79e-12  3.71e-07     0s
  20   7.44015812e+01  7.44010880e+01  4.11e-10 2.67e-12  1.83e-08     0s
  21   7.44014628e+01  7.44014604e+01  2.16e-10 3.03e-12  9.14e-11     0s
  22   7.44014621e+01  7.44014621e+01  6.62e-11 3.64e-12  1.10e-16     0s

Barrier solved model in 22 iterations and 0.20 seconds (0.17 work units)
Optimal objective 7.44014621e+01

Crossover log...

    1680 DPushes remaining with DInf 0.0000000e+00                 0s
       0 DPushes remaining with DInf 0.0000000e+00                 0s

     540 PPushes remaining with PInf 0.0000000e+00                 0s
       0 PPushes remaining with PInf 0.0000000e+00                 0s

  Push phase complete: Pinf 0.0000000e+00, Dinf 2.3614290e-13      0s

Iteration    Objective       Primal Inf.    Dual Inf.      Time
     591    7.4401462e+01   0.000000e+00   0.000000e+00      0s

Use crossover to convert LP symmetric solution to basic solution...
Crossover log...

       0 DPushes remaining with DInf 0.0000000e+00                 0s

     283 PPushes remaining with PInf 0.0000000e+00                 0s
       0 PPushes remaining with PInf 0.0000000e+00                 0s

  Push phase complete: Pinf 0.0000000e+00, Dinf 2.3827253e-13      0s

Iteration    Objective       Primal Inf.    Dual Inf.      Time
     908    7.4401462e+01   0.000000e+00   0.000000e+00      0s

Solved in 908 iterations and 0.30 seconds (0.21 work units)
Optimal objective  7.440146212e+01
